%%%mzn-stat: initTime=0.004514834
%%%mzn-stat: objective=332
%%%mzn-stat: nodes=409
%%%mzn-stat: restarts=0
%%%mzn-stat: peakDepth=76
%%%mzn-stat: solveTime=0.034848203
%%%mzn-stat: variables=478
%%%mzn-stat: propagators=334
%%%mzn-stat: failures=333
%%%mzn-stat: propagations=95740
%%%mzn-stat: nogoods=333
%%%mzn-stat: AverageConflictSize=2.4774774774774775
%%%mzn-stat: NumUnitNogoodsLearned=331
%%%mzn-stat: AverageLearnedNogoodLength=1.0690690690690692
%%%mzn-stat: AverageBacktrackAmount=0
%%%mzn-stat: AverageLbd=1.006006006006006
%%%mzn-stat-end
maxleg = 332;
succ = array1d(1..20,[10, 1, 12, 14, 7, 5, 16, 20, 18, 6, 13, 2, 17, 3, 8, 11, 9, 19, 15, 4]);
% time elapsed: 6.06 s
----------
==========
% time elapsed: 6.06 s
%%%mzn-stat: initTime=0.004514834
%%%mzn-stat: objective=332
%%%mzn-stat: nodes=409
%%%mzn-stat: restarts=0
%%%mzn-stat: peakDepth=76
%%%mzn-stat: solveTime=0.034854861
%%%mzn-stat: variables=478
%%%mzn-stat: propagators=334
%%%mzn-stat: failures=333
%%%mzn-stat: propagations=95740
%%%mzn-stat: nogoods=333
%%%mzn-stat: AverageConflictSize=2.4774774774774775
%%%mzn-stat: NumUnitNogoodsLearned=331
%%%mzn-stat: AverageLearnedNogoodLength=1.0690690690690692
%%%mzn-stat: AverageBacktrackAmount=0
%%%mzn-stat: AverageLbd=1.006006006006006
%%%mzn-stat-end
